data/lp_files/pEFS/84_7.lp
\ Model foo
\ LP format - for model browsing. Use MPS format to capture full model detail.
Minimize
  z
Subject To
 allocateEach[1]: x[1,1] + x[2,1] + x[3,1] + x[4,1] + x[5,1] = 1
 allocateEach[2]: x[1,2] + x[2,2] + x[3,2] + x[4,2] + x[5,2] = 1
 allocateEach[3]: x[1,3] + x[2,3] + x[3,3] + x[4,3] + x[5,3] = 1
 allocateEach[4]: x[1,4] + x[2,4] + x[3,4] + x[4,4] + x[5,4] = 1
 allocateAllCash: cashProportion[1] + cashProportion[2] + cashProportion[3]
   + cashProportion[4] + cashProportion[5] = 1
 findWorstP[1,2]: z + 0.2608809078655594 cashProportion[1]
   - 0.2608809078655594 cashProportion[2] + 0.00273924953258837 x[1,1]
   + 0.2918387755989391 x[1,2] + 0.2317492064872386 x[1,3]
   + 0.2127918605156746 x[1,4] - 0.00273924953258837 x[2,1]
   - 0.2918387755989391 x[2,2] - 0.2317492064872386 x[2,3]
   - 0.2127918605156746 x[2,4] >= 0
 findWorstP[1,3]: z + 0.2608809078655594 cashProportion[1]
   - 0.2608809078655594 cashProportion[3] + 0.00273924953258837 x[1,1]
   + 0.2918387755989391 x[1,2] + 0.2317492064872386 x[1,3]
   + 0.2127918605156746 x[1,4] - 0.00273924953258837 x[3,1]
   - 0.2918387755989391 x[3,2] - 0.2317492064872386 x[3,3]
   - 0.2127918605156746 x[3,4] >= 0
 findWorstP[1,4]: z + 0.2608809078655594 cashProportion[1]
   - 0.2608809078655594 cashProportion[4] + 0.00273924953258837 x[1,1]
   + 0.2918387755989391 x[1,2] + 0.2317492064872386 x[1,3]
   + 0.2127918605156746 x[1,4] - 0.00273924953258837 x[4,1]
   - 0.2918387755989391 x[4,2] - 0.2317492064872386 x[4,3]
   - 0.2127918605156746 x[4,4] >= 0
 findWorstP[1,5]: z + 0.2608809078655594 cashProportion[1]
   - 0.2608809078655594 cashProportion[5] + 0.00273924953258837 x[1,1]
   + 0.2918387755989391 x[1,2] + 0.2317492064872386 x[1,3]
   + 0.2127918605156746 x[1,4] - 0.00273924953258837 x[5,1]
   - 0.2918387755989391 x[5,2] - 0.2317492064872386 x[5,3]
   - 0.2127918605156746 x[5,4] >= 0
 findWorstP[2,1]: z - 0.2971032433770736 cashProportion[1]
   + 0.2971032433770736 cashProportion[2] - 0.3929685565734093 x[1,1]
   - 0.0473384501114137 x[1,2] - 0.1181480564496163 x[1,3]
   - 0.1444416934884873 x[1,4] + 0.3929685565734093 x[2,1]
   + 0.0473384501114137 x[2,2] + 0.1181480564496163 x[2,3]
   + 0.1444416934884873 x[2,4] >= 0
 findWorstP[2,3]: z + 0.2971032433770736 cashProportion[2]
   - 0.2971032433770736 cashProportion[3] + 0.3929685565734093 x[2,1]
   + 0.0473384501114137 x[2,2] + 0.1181480564496163 x[2,3]
   + 0.1444416934884873 x[2,4] - 0.3929685565734093 x[3,1]
   - 0.0473384501114137 x[3,2] - 0.1181480564496163 x[3,3]
   - 0.1444416934884873 x[3,4] >= 0
 findWorstP[2,4]: z + 0.2971032433770736 cashProportion[2]
   - 0.2971032433770736 cashProportion[4] + 0.3929685565734093 x[2,1]
   + 0.0473384501114137 x[2,2] + 0.1181480564496163 x[2,3]
   + 0.1444416934884873 x[2,4] - 0.3929685565734093 x[4,1]
   - 0.0473384501114137 x[4,2] - 0.1181480564496163 x[4,3]
   - 0.1444416934884873 x[4,4] >= 0
 findWorstP[2,5]: z + 0.2971032433770736 cashProportion[2]
   - 0.2971032433770736 cashProportion[5] + 0.3929685565734093 x[2,1]
   + 0.0473384501114137 x[2,2] + 0.1181480564496163 x[2,3]
   + 0.1444416934884873 x[2,4] - 0.3929685565734093 x[5,1]
   - 0.0473384501114137 x[5,2] - 0.1181480564496163 x[5,3]
   - 0.1444416934884873 x[5,4] >= 0
 findWorstP[3,1]: z - 0.1794956173153439 cashProportion[1]
   + 0.1794956173153439 cashProportion[3] - 0.1413527986358333 x[1,1]
   - 0.1749783109462411 x[1,2] - 0.286624584916385 x[1,3]
   - 0.2175486881861968 x[1,4] + 0.1413527986358333 x[3,1]
   + 0.1749783109462411 x[3,2] + 0.286624584916385 x[3,3]
   + 0.2175486881861968 x[3,4] >= 0
 findWorstP[3,2]: z - 0.1794956173153439 cashProportion[2]
   + 0.1794956173153439 cashProportion[3] - 0.1413527986358333 x[2,1]
   - 0.1749783109462411 x[2,2] - 0.286624584916385 x[2,3]
   - 0.2175486881861968 x[2,4] + 0.1413527986358333 x[3,1]
   + 0.1749783109462411 x[3,2] + 0.286624584916385 x[3,3]
   + 0.2175486881861968 x[3,4] >= 0
 findWorstP[3,4]: z + 0.1794956173153439 cashProportion[3]
   - 0.1794956173153439 cashProportion[4] + 0.1413527986358333 x[3,1]
   + 0.1749783109462411 x[3,2] + 0.286624584916385 x[3,3]
   + 0.2175486881861968 x[3,4] - 0.1413527986358333 x[4,1]
   - 0.1749783109462411 x[4,2] - 0.286624584916385 x[4,3]
   - 0.2175486881861968 x[4,4] >= 0
 findWorstP[3,5]: z + 0.1794956173153439 cashProportion[3]
   - 0.1794956173153439 cashProportion[5] + 0.1413527986358333 x[3,1]
   + 0.1749783109462411 x[3,2] + 0.286624584916385 x[3,3]
   + 0.2175486881861968 x[3,4] - 0.1413527986358333 x[5,1]
   - 0.1749783109462411 x[5,2] - 0.286624584916385 x[5,3]
   - 0.2175486881861968 x[5,4] >= 0
 findWorstP[4,1]: z - 0.2281195346361494 cashProportion[1]
   + 0.2281195346361494 cashProportion[4] - 0.2928294426279371 x[1,1]
   - 0.1718120295034598 x[1,2] - 0.1421184700783211 x[1,3]
   - 0.1651205231541328 x[1,4] + 0.2928294426279371 x[4,1]
   + 0.1718120295034598 x[4,2] + 0.1421184700783211 x[4,3]
   + 0.1651205231541328 x[4,4] >= 0
 findWorstP[4,2]: z - 0.2281195346361494 cashProportion[2]
   + 0.2281195346361494 cashProportion[4] - 0.2928294426279371 x[2,1]
   - 0.1718120295034598 x[2,2] - 0.1421184700783211 x[2,3]
   - 0.1651205231541328 x[2,4] + 0.2928294426279371 x[4,1]
   + 0.1718120295034598 x[4,2] + 0.1421184700783211 x[4,3]
   + 0.1651205231541328 x[4,4] >= 0
 findWorstP[4,3]: z - 0.2281195346361494 cashProportion[3]
   + 0.2281195346361494 cashProportion[4] - 0.2928294426279371 x[3,1]
   - 0.1718120295034598 x[3,2] - 0.1421184700783211 x[3,3]
   - 0.1651205231541328 x[3,4] + 0.2928294426279371 x[4,1]
   + 0.1718120295034598 x[4,2] + 0.1421184700783211 x[4,3]
   + 0.1651205231541328 x[4,4] >= 0
 findWorstP[4,5]: z + 0.2281195346361494 cashProportion[4]
   - 0.2281195346361494 cashProportion[5] + 0.2928294426279371 x[4,1]
   + 0.1718120295034598 x[4,2] + 0.1421184700783211 x[4,3]
   + 0.1651205231541328 x[4,4] - 0.2928294426279371 x[5,1]
   - 0.1718120295034598 x[5,2] - 0.1421184700783211 x[5,3]
   - 0.1651205231541328 x[5,4] >= 0
 findWorstP[5,1]: z - 0.2327024511324853 cashProportion[1]
   + 0.2327024511324853 cashProportion[5] - 0.1106500155134967 x[1,1]
   - 0.3624340676388457 x[1,2] - 0.1115032578343158 x[1,3]
   - 0.1827102078808563 x[1,4] + 0.1106500155134967 x[5,1]
   + 0.3624340676388457 x[5,2] + 0.1115032578343158 x[5,3]
   + 0.1827102078808563 x[5,4] >= 0
 findWorstP[5,2]: z - 0.2327024511324853 cashProportion[2]
   + 0.2327024511324853 cashProportion[5] - 0.1106500155134967 x[2,1]
   - 0.3624340676388457 x[2,2] - 0.1115032578343158 x[2,3]
   - 0.1827102078808563 x[2,4] + 0.1106500155134967 x[5,1]
   + 0.3624340676388457 x[5,2] + 0.1115032578343158 x[5,3]
   + 0.1827102078808563 x[5,4] >= 0
 findWorstP[5,3]: z - 0.2327024511324853 cashProportion[3]
   + 0.2327024511324853 cashProportion[5] - 0.1106500155134967 x[3,1]
   - 0.3624340676388457 x[3,2] - 0.1115032578343158 x[3,3]
   - 0.1827102078808563 x[3,4] + 0.1106500155134967 x[5,1]
   + 0.3624340676388457 x[5,2] + 0.1115032578343158 x[5,3]
   + 0.1827102078808563 x[5,4] >= 0
 findWorstP[5,4]: z - 0.2327024511324853 cashProportion[4]
   + 0.2327024511324853 cashProportion[5] - 0.1106500155134967 x[4,1]
   - 0.3624340676388457 x[4,2] - 0.1115032578343158 x[4,3]
   - 0.1827102078808563 x[4,4] + 0.1106500155134967 x[5,1]
   + 0.3624340676388457 x[5,2] + 0.1115032578343158 x[5,3]
   + 0.1827102078808563 x[5,4] >= 0
Bounds
 z <= 1
 -infinity <= cashProportion[1] <= 1
 -infinity <= cashProportion[2] <= 1
 -infinity <= cashProportion[3] <= 1
 -infinity <= cashProportion[4] <= 1
 -infinity <= cashProportion[5] <= 1
Binaries
 x[1,1] x[1,2] x[1,3] x[1,4] x[2,1] x[2,2] x[2,3] x[2,4] x[3,1] x[3,2]
 x[3,3] x[3,4] x[4,1] x[4,2] x[4,3] x[4,4] x[5,1] x[5,2] x[5,3] x[5,4]
End
