data/mps_files/pEFS/84_7.mps
NAME foo
ROWS
 N  OBJ
 E  allocateEach[1]
 E  allocateEach[2]
 E  allocateEach[3]
 E  allocateEach[4]
 E  allocateAllCash
 G  findWorstP[1,2]
 G  findWorstP[1,3]
 G  findWorstP[1,4]
 G  findWorstP[1,5]
 G  findWorstP[2,1]
 G  findWorstP[2,3]
 G  findWorstP[2,4]
 G  findWorstP[2,5]
 G  findWorstP[3,1]
 G  findWorstP[3,2]
 G  findWorstP[3,4]
 G  findWorstP[3,5]
 G  findWorstP[4,1]
 G  findWorstP[4,2]
 G  findWorstP[4,3]
 G  findWorstP[4,5]
 G  findWorstP[5,1]
 G  findWorstP[5,2]
 G  findWorstP[5,3]
 G  findWorstP[5,4]
COLUMNS
    z         OBJ       1
    z         findWorstP[1,2]  1
    z         findWorstP[1,3]  1
    z         findWorstP[1,4]  1
    z         findWorstP[1,5]  1
    z         findWorstP[2,1]  1
    z         findWorstP[2,3]  1
    z         findWorstP[2,4]  1
    z         findWorstP[2,5]  1
    z         findWorstP[3,1]  1
    z         findWorstP[3,2]  1
    z         findWorstP[3,4]  1
    z         findWorstP[3,5]  1
    z         findWorstP[4,1]  1
    z         findWorstP[4,2]  1
    z         findWorstP[4,3]  1
    z         findWorstP[4,5]  1
    z         findWorstP[5,1]  1
    z         findWorstP[5,2]  1
    z         findWorstP[5,3]  1
    z         findWorstP[5,4]  1
    cashProportion[1]  allocateAllCash  1
    cashProportion[1]  findWorstP[1,2]  2.6088090786555940e-01
    cashProportion[1]  findWorstP[1,3]  2.6088090786555940e-01
    cashProportion[1]  findWorstP[1,4]  2.6088090786555940e-01
    cashProportion[1]  findWorstP[1,5]  2.6088090786555940e-01
    cashProportion[1]  findWorstP[2,1]  -2.9710324337707361e-01
    cashProportion[1]  findWorstP[3,1]  -1.7949561731534391e-01
    cashProportion[1]  findWorstP[4,1]  -2.2811953463614940e-01
    cashProportion[1]  findWorstP[5,1]  -2.3270245113248528e-01
    cashProportion[2]  allocateAllCash  1
    cashProportion[2]  findWorstP[1,2]  -2.6088090786555940e-01
    cashProportion[2]  findWorstP[2,1]  2.9710324337707361e-01
    cashProportion[2]  findWorstP[2,3]  2.9710324337707361e-01
    cashProportion[2]  findWorstP[2,4]  2.9710324337707361e-01
    cashProportion[2]  findWorstP[2,5]  2.9710324337707361e-01
    cashProportion[2]  findWorstP[3,2]  -1.7949561731534391e-01
    cashProportion[2]  findWorstP[4,2]  -2.2811953463614940e-01
    cashProportion[2]  findWorstP[5,2]  -2.3270245113248528e-01
    cashProportion[3]  allocateAllCash  1
    cashProportion[3]  findWorstP[1,3]  -2.6088090786555940e-01
    cashProportion[3]  findWorstP[2,3]  -2.9710324337707361e-01
    cashProportion[3]  findWorstP[3,1]  1.7949561731534391e-01
    cashProportion[3]  findWorstP[3,2]  1.7949561731534391e-01
    cashProportion[3]  findWorstP[3,4]  1.7949561731534391e-01
    cashProportion[3]  findWorstP[3,5]  1.7949561731534391e-01
    cashProportion[3]  findWorstP[4,3]  -2.2811953463614940e-01
    cashProportion[3]  findWorstP[5,3]  -2.3270245113248528e-01
    cashProportion[4]  allocateAllCash  1
    cashProportion[4]  findWorstP[1,4]  -2.6088090786555940e-01
    cashProportion[4]  findWorstP[2,4]  -2.9710324337707361e-01
    cashProportion[4]  findWorstP[3,4]  -1.7949561731534391e-01
    cashProportion[4]  findWorstP[4,1]  2.2811953463614940e-01
    cashProportion[4]  findWorstP[4,2]  2.2811953463614940e-01
    cashProportion[4]  findWorstP[4,3]  2.2811953463614940e-01
    cashProportion[4]  findWorstP[4,5]  2.2811953463614940e-01
    cashProportion[4]  findWorstP[5,4]  -2.3270245113248528e-01
    cashProportion[5]  allocateAllCash  1
    cashProportion[5]  findWorstP[1,5]  -2.6088090786555940e-01
    cashProportion[5]  findWorstP[2,5]  -2.9710324337707361e-01
    cashProportion[5]  findWorstP[3,5]  -1.7949561731534391e-01
    cashProportion[5]  findWorstP[4,5]  -2.2811953463614940e-01
    cashProportion[5]  findWorstP[5,1]  2.3270245113248528e-01
    cashProportion[5]  findWorstP[5,2]  2.3270245113248528e-01
    cashProportion[5]  findWorstP[5,3]  2.3270245113248528e-01
    cashProportion[5]  findWorstP[5,4]  2.3270245113248528e-01
    MARKER    'MARKER'                 'INTORG'
    x[1,1]    allocateEach[1]  1
    x[1,1]    findWorstP[1,2]  2.7392495325883736e-03
    x[1,1]    findWorstP[1,3]  2.7392495325883736e-03
    x[1,1]    findWorstP[1,4]  2.7392495325883736e-03
    x[1,1]    findWorstP[1,5]  2.7392495325883736e-03
    x[1,1]    findWorstP[2,1]  -3.9296855657340929e-01
    x[1,1]    findWorstP[3,1]  -1.4135279863583330e-01
    x[1,1]    findWorstP[4,1]  -2.9282944262793709e-01
    x[1,1]    findWorstP[5,1]  -1.1065001551349672e-01
    x[1,2]    allocateEach[2]  1
    x[1,2]    findWorstP[1,2]  2.9183877559893912e-01
    x[1,2]    findWorstP[1,3]  2.9183877559893912e-01
    x[1,2]    findWorstP[1,4]  2.9183877559893912e-01
    x[1,2]    findWorstP[1,5]  2.9183877559893912e-01
    x[1,2]    findWorstP[2,1]  -4.7338450111413723e-02
    x[1,2]    findWorstP[3,1]  -1.7497831094624106e-01
    x[1,2]    findWorstP[4,1]  -1.7181202950345983e-01
    x[1,2]    findWorstP[5,1]  -3.6243406763884572e-01
    x[1,3]    allocateEach[3]  1
    x[1,3]    findWorstP[1,2]  2.3174920648723860e-01
    x[1,3]    findWorstP[1,3]  2.3174920648723860e-01
    x[1,3]    findWorstP[1,4]  2.3174920648723860e-01
    x[1,3]    findWorstP[1,5]  2.3174920648723860e-01
    x[1,3]    findWorstP[2,1]  -1.1814805644961626e-01
    x[1,3]    findWorstP[3,1]  -0.286624584916385
    x[1,3]    findWorstP[4,1]  -1.4211847007832107e-01
    x[1,3]    findWorstP[5,1]  -1.1150325783431583e-01
    x[1,4]    allocateEach[4]  1
    x[1,4]    findWorstP[1,2]  2.1279186051567459e-01
    x[1,4]    findWorstP[1,3]  2.1279186051567459e-01
    x[1,4]    findWorstP[1,4]  2.1279186051567459e-01
    x[1,4]    findWorstP[1,5]  2.1279186051567459e-01
    x[1,4]    findWorstP[2,1]  -1.4444169348848726e-01
    x[1,4]    findWorstP[3,1]  -2.1754868818619677e-01
    x[1,4]    findWorstP[4,1]  -1.6512052315413278e-01
    x[1,4]    findWorstP[5,1]  -1.8271020788085632e-01
    x[2,1]    allocateEach[1]  1
    x[2,1]    findWorstP[1,2]  -2.7392495325883736e-03
    x[2,1]    findWorstP[2,1]  3.9296855657340929e-01
    x[2,1]    findWorstP[2,3]  3.9296855657340929e-01
    x[2,1]    findWorstP[2,4]  3.9296855657340929e-01
    x[2,1]    findWorstP[2,5]  3.9296855657340929e-01
    x[2,1]    findWorstP[3,2]  -1.4135279863583330e-01
    x[2,1]    findWorstP[4,2]  -2.9282944262793709e-01
    x[2,1]    findWorstP[5,2]  -1.1065001551349672e-01
    x[2,2]    allocateEach[2]  1
    x[2,2]    findWorstP[1,2]  -2.9183877559893912e-01
    x[2,2]    findWorstP[2,1]  4.7338450111413723e-02
    x[2,2]    findWorstP[2,3]  4.7338450111413723e-02
    x[2,2]    findWorstP[2,4]  4.7338450111413723e-02
    x[2,2]    findWorstP[2,5]  4.7338450111413723e-02
    x[2,2]    findWorstP[3,2]  -1.7497831094624106e-01
    x[2,2]    findWorstP[4,2]  -1.7181202950345983e-01
    x[2,2]    findWorstP[5,2]  -3.6243406763884572e-01
    x[2,3]    allocateEach[3]  1
    x[2,3]    findWorstP[1,2]  -2.3174920648723860e-01
    x[2,3]    findWorstP[2,1]  1.1814805644961626e-01
    x[2,3]    findWorstP[2,3]  1.1814805644961626e-01
    x[2,3]    findWorstP[2,4]  1.1814805644961626e-01
    x[2,3]    findWorstP[2,5]  1.1814805644961626e-01
    x[2,3]    findWorstP[3,2]  -0.286624584916385
    x[2,3]    findWorstP[4,2]  -1.4211847007832107e-01
    x[2,3]    findWorstP[5,2]  -1.1150325783431583e-01
    x[2,4]    allocateEach[4]  1
    x[2,4]    findWorstP[1,2]  -2.1279186051567459e-01
    x[2,4]    findWorstP[2,1]  1.4444169348848726e-01
    x[2,4]    findWorstP[2,3]  1.4444169348848726e-01
    x[2,4]    findWorstP[2,4]  1.4444169348848726e-01
    x[2,4]    findWorstP[2,5]  1.4444169348848726e-01
    x[2,4]    findWorstP[3,2]  -2.1754868818619677e-01
    x[2,4]    findWorstP[4,2]  -1.6512052315413278e-01
    x[2,4]    findWorstP[5,2]  -1.8271020788085632e-01
    x[3,1]    allocateEach[1]  1
    x[3,1]    findWorstP[1,3]  -2.7392495325883736e-03
    x[3,1]    findWorstP[2,3]  -3.9296855657340929e-01
    x[3,1]    findWorstP[3,1]  1.4135279863583330e-01
    x[3,1]    findWorstP[3,2]  1.4135279863583330e-01
    x[3,1]    findWorstP[3,4]  1.4135279863583330e-01
    x[3,1]    findWorstP[3,5]  1.4135279863583330e-01
    x[3,1]    findWorstP[4,3]  -2.9282944262793709e-01
    x[3,1]    findWorstP[5,3]  -1.1065001551349672e-01
    x[3,2]    allocateEach[2]  1
    x[3,2]    findWorstP[1,3]  -2.9183877559893912e-01
    x[3,2]    findWorstP[2,3]  -4.7338450111413723e-02
    x[3,2]    findWorstP[3,1]  1.7497831094624106e-01
    x[3,2]    findWorstP[3,2]  1.7497831094624106e-01
    x[3,2]    findWorstP[3,4]  1.7497831094624106e-01
    x[3,2]    findWorstP[3,5]  1.7497831094624106e-01
    x[3,2]    findWorstP[4,3]  -1.7181202950345983e-01
    x[3,2]    findWorstP[5,3]  -3.6243406763884572e-01
    x[3,3]    allocateEach[3]  1
    x[3,3]    findWorstP[1,3]  -2.3174920648723860e-01
    x[3,3]    findWorstP[2,3]  -1.1814805644961626e-01
    x[3,3]    findWorstP[3,1]  0.286624584916385
    x[3,3]    findWorstP[3,2]  0.286624584916385
    x[3,3]    findWorstP[3,4]  0.286624584916385
    x[3,3]    findWorstP[3,5]  0.286624584916385
    x[3,3]    findWorstP[4,3]  -1.4211847007832107e-01
    x[3,3]    findWorstP[5,3]  -1.1150325783431583e-01
    x[3,4]    allocateEach[4]  1
    x[3,4]    findWorstP[1,3]  -2.1279186051567459e-01
    x[3,4]    findWorstP[2,3]  -1.4444169348848726e-01
    x[3,4]    findWorstP[3,1]  2.1754868818619677e-01
    x[3,4]    findWorstP[3,2]  2.1754868818619677e-01
    x[3,4]    findWorstP[3,4]  2.1754868818619677e-01
    x[3,4]    findWorstP[3,5]  2.1754868818619677e-01
    x[3,4]    findWorstP[4,3]  -1.6512052315413278e-01
    x[3,4]    findWorstP[5,3]  -1.8271020788085632e-01
    x[4,1]    allocateEach[1]  1
    x[4,1]    findWorstP[1,4]  -2.7392495325883736e-03
    x[4,1]    findWorstP[2,4]  -3.9296855657340929e-01
    x[4,1]    findWorstP[3,4]  -1.4135279863583330e-01
    x[4,1]    findWorstP[4,1]  2.9282944262793709e-01
    x[4,1]    findWorstP[4,2]  2.9282944262793709e-01
    x[4,1]    findWorstP[4,3]  2.9282944262793709e-01
    x[4,1]    findWorstP[4,5]  2.9282944262793709e-01
    x[4,1]    findWorstP[5,4]  -1.1065001551349672e-01
    x[4,2]    allocateEach[2]  1
    x[4,2]    findWorstP[1,4]  -2.9183877559893912e-01
    x[4,2]    findWorstP[2,4]  -4.7338450111413723e-02
    x[4,2]    findWorstP[3,4]  -1.7497831094624106e-01
    x[4,2]    findWorstP[4,1]  1.7181202950345983e-01
    x[4,2]    findWorstP[4,2]  1.7181202950345983e-01
    x[4,2]    findWorstP[4,3]  1.7181202950345983e-01
    x[4,2]    findWorstP[4,5]  1.7181202950345983e-01
    x[4,2]    findWorstP[5,4]  -3.6243406763884572e-01
    x[4,3]    allocateEach[3]  1
    x[4,3]    findWorstP[1,4]  -2.3174920648723860e-01
    x[4,3]    findWorstP[2,4]  -1.1814805644961626e-01
    x[4,3]    findWorstP[3,4]  -0.286624584916385
    x[4,3]    findWorstP[4,1]  1.4211847007832107e-01
    x[4,3]    findWorstP[4,2]  1.4211847007832107e-01
    x[4,3]    findWorstP[4,3]  1.4211847007832107e-01
    x[4,3]    findWorstP[4,5]  1.4211847007832107e-01
    x[4,3]    findWorstP[5,4]  -1.1150325783431583e-01
    x[4,4]    allocateEach[4]  1
    x[4,4]    findWorstP[1,4]  -2.1279186051567459e-01
    x[4,4]    findWorstP[2,4]  -1.4444169348848726e-01
    x[4,4]    findWorstP[3,4]  -2.1754868818619677e-01
    x[4,4]    findWorstP[4,1]  1.6512052315413278e-01
    x[4,4]    findWorstP[4,2]  1.6512052315413278e-01
    x[4,4]    findWorstP[4,3]  1.6512052315413278e-01
    x[4,4]    findWorstP[4,5]  1.6512052315413278e-01
    x[4,4]    findWorstP[5,4]  -1.8271020788085632e-01
    x[5,1]    allocateEach[1]  1
    x[5,1]    findWorstP[1,5]  -2.7392495325883736e-03
    x[5,1]    findWorstP[2,5]  -3.9296855657340929e-01
    x[5,1]    findWorstP[3,5]  -1.4135279863583330e-01
    x[5,1]    findWorstP[4,5]  -2.9282944262793709e-01
    x[5,1]    findWorstP[5,1]  1.1065001551349672e-01
    x[5,1]    findWorstP[5,2]  1.1065001551349672e-01
    x[5,1]    findWorstP[5,3]  1.1065001551349672e-01
    x[5,1]    findWorstP[5,4]  1.1065001551349672e-01
    x[5,2]    allocateEach[2]  1
    x[5,2]    findWorstP[1,5]  -2.9183877559893912e-01
    x[5,2]    findWorstP[2,5]  -4.7338450111413723e-02
    x[5,2]    findWorstP[3,5]  -1.7497831094624106e-01
    x[5,2]    findWorstP[4,5]  -1.7181202950345983e-01
    x[5,2]    findWorstP[5,1]  3.6243406763884572e-01
    x[5,2]    findWorstP[5,2]  3.6243406763884572e-01
    x[5,2]    findWorstP[5,3]  3.6243406763884572e-01
    x[5,2]    findWorstP[5,4]  3.6243406763884572e-01
    x[5,3]    allocateEach[3]  1
    x[5,3]    findWorstP[1,5]  -2.3174920648723860e-01
    x[5,3]    findWorstP[2,5]  -1.1814805644961626e-01
    x[5,3]    findWorstP[3,5]  -0.286624584916385
    x[5,3]    findWorstP[4,5]  -1.4211847007832107e-01
    x[5,3]    findWorstP[5,1]  1.1150325783431583e-01
    x[5,3]    findWorstP[5,2]  1.1150325783431583e-01
    x[5,3]    findWorstP[5,3]  1.1150325783431583e-01
    x[5,3]    findWorstP[5,4]  1.1150325783431583e-01
    x[5,4]    allocateEach[4]  1
    x[5,4]    findWorstP[1,5]  -2.1279186051567459e-01
    x[5,4]    findWorstP[2,5]  -1.4444169348848726e-01
    x[5,4]    findWorstP[3,5]  -2.1754868818619677e-01
    x[5,4]    findWorstP[4,5]  -1.6512052315413278e-01
    x[5,4]    findWorstP[5,1]  1.8271020788085632e-01
    x[5,4]    findWorstP[5,2]  1.8271020788085632e-01
    x[5,4]    findWorstP[5,3]  1.8271020788085632e-01
    x[5,4]    findWorstP[5,4]  1.8271020788085632e-01
    MARKER    'MARKER'                 'INTEND'
RHS
    RHS1      allocateEach[1]  1
    RHS1      allocateEach[2]  1
    RHS1      allocateEach[3]  1
    RHS1      allocateEach[4]  1
    RHS1      allocateAllCash  1
BOUNDS
 UP BND1      z         1
 MI BND1      cashProportion[1]
 UP BND1      cashProportion[1]  1
 MI BND1      cashProportion[2]
 UP BND1      cashProportion[2]  1
 MI BND1      cashProportion[3]
 UP BND1      cashProportion[3]  1
 MI BND1      cashProportion[4]
 UP BND1      cashProportion[4]  1
 MI BND1      cashProportion[5]
 UP BND1      cashProportion[5]  1
 BV BND1      x[1,1]  
 BV BND1      x[1,2]  
 BV BND1      x[1,3]  
 BV BND1      x[1,4]  
 BV BND1      x[2,1]  
 BV BND1      x[2,2]  
 BV BND1      x[2,3]  
 BV BND1      x[2,4]  
 BV BND1      x[3,1]  
 BV BND1      x[3,2]  
 BV BND1      x[3,3]  
 BV BND1      x[3,4]  
 BV BND1      x[4,1]  
 BV BND1      x[4,2]  
 BV BND1      x[4,3]  
 BV BND1      x[4,4]  
 BV BND1      x[5,1]  
 BV BND1      x[5,2]  
 BV BND1      x[5,3]  
 BV BND1      x[5,4]  
ENDATA
